p cnf 20 38
e 1 2 3 4 5 6 7 8 9 10 0
a 11 0
e 12 13 14 15 16 17 18 19 20 0
-1 -2 -12 0
-1 2 12 0
1 -2 12 0
1 2 -12 0
-12 -3 -13 0
-12 3 13 0
12 -3 13 0
12 3 -13 0
-13 -4 -14 0
-13 4 14 0
13 -4 14 0
13 4 -14 0
-14 -5 -15 0
-14 5 15 0
14 -5 15 0
14 5 -15 0
-15 -6 -16 0
-15 6 16 0
15 -6 16 0
15 6 -16 0
-16 -7 -17 0
-16 7 17 0
16 -7 17 0
16 7 -17 0
-17 -8 -18 0
-17 8 18 0
17 -8 18 0
17 8 -18 0
-18 -9 -19 0
-18 9 19 0
18 -9 19 0
18 9 -19 0
-19 -10 -20 0
-19 10 20 0
19 -10 20 0
19 10 -20 0
11 20 0
-11 -20 0
